Minimize
  min
Subject To
 R0: I0M0 + I1M0 + I2M0 + I3M0 + I4M0 + I5M0 + I6M0 + I7M0 + I8M0 + I9M0
   = 1
 R1: I0M1 + I1M1 + I2M1 + I3M1 + I4M1 + I5M1 + I6M1 + I7M1 + I8M1 + I9M1
   = 1
 R2: I0M2 + I1M2 + I2M2 + I3M2 + I4M2 + I5M2 + I6M2 + I7M2 + I8M2 + I9M2
   = 1
 R3: I0M3 + I1M3 + I2M3 + I3M3 + I4M3 + I5M3 + I6M3 + I7M3 + I8M3 + I9M3
   = 1
 R4: I0M4 + I1M4 + I2M4 + I3M4 + I4M4 + I5M4 + I6M4 + I7M4 + I8M4 + I9M4
   = 1
 R5: I0M5 + I1M5 + I2M5 + I3M5 + I4M5 + I5M5 + I6M5 + I7M5 + I8M5 + I9M5
   = 1
 R6: I0M6 + I1M6 + I2M6 + I3M6 + I4M6 + I5M6 + I6M6 + I7M6 + I8M6 + I9M6
   = 1
 R7: I0M7 + I1M7 + I2M7 + I3M7 + I4M7 + I5M7 + I6M7 + I7M7 + I8M7 + I9M7
   = 1
 R8: I0M8 + I1M8 + I2M8 + I3M8 + I4M8 + I5M8 + I6M8 + I7M8 + I8M8 + I9M8
   = 1
 R9: I0M9 + I1M9 + I2M9 + I3M9 + I4M9 + I5M9 + I6M9 + I7M9 + I8M9 + I9M9
   = 1
 R10: I0M10 + I1M10 + I2M10 + I3M10 + I4M10 + I5M10 + I6M10 + I7M10 + I8M10
   + I9M10 = 1
 R11: I0M11 + I1M11 + I2M11 + I3M11 + I4M11 + I5M11 + I6M11 + I7M11 + I8M11
   + I9M11 = 1
 R12: I0M12 + I1M12 + I2M12 + I3M12 + I4M12 + I5M12 + I6M12 + I7M12 + I8M12
   + I9M12 = 1
 R13: I0M13 + I1M13 + I2M13 + I3M13 + I4M13 + I5M13 + I6M13 + I7M13 + I8M13
   + I9M13 = 1
 R14: I0M14 + I1M14 + I2M14 + I3M14 + I4M14 + I5M14 + I6M14 + I7M14 + I8M14
   + I9M14 = 1
 R15: I0M15 + I1M15 + I2M15 + I3M15 + I4M15 + I5M15 + I6M15 + I7M15 + I8M15
   + I9M15 = 1
 R16: I0M16 + I1M16 + I2M16 + I3M16 + I4M16 + I5M16 + I6M16 + I7M16 + I8M16
   + I9M16 = 1
 R17: I0M17 + I1M17 + I2M17 + I3M17 + I4M17 + I5M17 + I6M17 + I7M17 + I8M17
   + I9M17 = 1
 R18: I0M18 + I1M18 + I2M18 + I3M18 + I4M18 + I5M18 + I6M18 + I7M18 + I8M18
   + I9M18 = 1
 R19: I0M19 + I1M19 + I2M19 + I3M19 + I4M19 + I5M19 + I6M19 + I7M19 + I8M19
   + I9M19 = 1
 R20: I0M20 + I1M20 + I2M20 + I3M20 + I4M20 + I5M20 + I6M20 + I7M20 + I8M20
   + I9M20 = 1
 R21: I0M21 + I1M21 + I2M21 + I3M21 + I4M21 + I5M21 + I6M21 + I7M21 + I8M21
   + I9M21 = 1
 R22: I0M22 + I1M22 + I2M22 + I3M22 + I4M22 + I5M22 + I6M22 + I7M22 + I8M22
   + I9M22 = 1
 R23: I0M23 + I1M23 + I2M23 + I3M23 + I4M23 + I5M23 + I6M23 + I7M23 + I8M23
   + I9M23 = 1
 R24: I0M24 + I1M24 + I2M24 + I3M24 + I4M24 + I5M24 + I6M24 + I7M24 + I8M24
   + I9M24 = 1
 R25: I0M25 + I1M25 + I2M25 + I3M25 + I4M25 + I5M25 + I6M25 + I7M25 + I8M25
   + I9M25 = 1
 R26: I0M26 + I1M26 + I2M26 + I3M26 + I4M26 + I5M26 + I6M26 + I7M26 + I8M26
   + I9M26 = 1
 R27: I0M27 + I1M27 + I2M27 + I3M27 + I4M27 + I5M27 + I6M27 + I7M27 + I8M27
   + I9M27 = 1
 R28: I0M28 + I1M28 + I2M28 + I3M28 + I4M28 + I5M28 + I6M28 + I7M28 + I8M28
   + I9M28 = 1
 R29: I0M29 + I1M29 + I2M29 + I3M29 + I4M29 + I5M29 + I6M29 + I7M29 + I8M29
   + I9M29 = 1
 R30: I0M30 + I1M30 + I2M30 + I3M30 + I4M30 + I5M30 + I6M30 + I7M30 + I8M30
   + I9M30 = 1
 R31: I0M31 + I1M31 + I2M31 + I3M31 + I4M31 + I5M31 + I6M31 + I7M31 + I8M31
   + I9M31 = 1
 R32: I0M32 + I1M32 + I2M32 + I3M32 + I4M32 + I5M32 + I6M32 + I7M32 + I8M32
   + I9M32 = 1
 R33: I0M33 + I1M33 + I2M33 + I3M33 + I4M33 + I5M33 + I6M33 + I7M33 + I8M33
   + I9M33 = 1
 R34: I0M34 + I1M34 + I2M34 + I3M34 + I4M34 + I5M34 + I6M34 + I7M34 + I8M34
   + I9M34 = 1
 R35: I0M35 + I1M35 + I2M35 + I3M35 + I4M35 + I5M35 + I6M35 + I7M35 + I8M35
   + I9M35 = 1
 R36: I0M36 + I1M36 + I2M36 + I3M36 + I4M36 + I5M36 + I6M36 + I7M36 + I8M36
   + I9M36 = 1
 R37: I0M37 + I1M37 + I2M37 + I3M37 + I4M37 + I5M37 + I6M37 + I7M37 + I8M37
   + I9M37 = 1
 R38: I0M38 + I1M38 + I2M38 + I3M38 + I4M38 + I5M38 + I6M38 + I7M38 + I8M38
   + I9M38 = 1
 R39: I0M39 + I1M39 + I2M39 + I3M39 + I4M39 + I5M39 + I6M39 + I7M39 + I8M39
   + I9M39 = 1
 R40: I0M40 + I1M40 + I2M40 + I3M40 + I4M40 + I5M40 + I6M40 + I7M40 + I8M40
   + I9M40 = 1
 R41: I0M41 + I1M41 + I2M41 + I3M41 + I4M41 + I5M41 + I6M41 + I7M41 + I8M41
   + I9M41 = 1
 R42: I0M42 + I1M42 + I2M42 + I3M42 + I4M42 + I5M42 + I6M42 + I7M42 + I8M42
   + I9M42 = 1
 R43: I0M43 + I1M43 + I2M43 + I3M43 + I4M43 + I5M43 + I6M43 + I7M43 + I8M43
   + I9M43 = 1
 R44: I0M44 + I1M44 + I2M44 + I3M44 + I4M44 + I5M44 + I6M44 + I7M44 + I8M44
   + I9M44 = 1
 R45: I0M45 + I1M45 + I2M45 + I3M45 + I4M45 + I5M45 + I6M45 + I7M45 + I8M45
   + I9M45 = 1
 R46: I0M46 + I1M46 + I2M46 + I3M46 + I4M46 + I5M46 + I6M46 + I7M46 + I8M46
   + I9M46 = 1
 R47: I0M47 + I1M47 + I2M47 + I3M47 + I4M47 + I5M47 + I6M47 + I7M47 + I8M47
   + I9M47 = 1
 R48: I0M48 + I1M48 + I2M48 + I3M48 + I4M48 + I5M48 + I6M48 + I7M48 + I8M48
   + I9M48 = 1
 R49: I0M49 + I1M49 + I2M49 + I3M49 + I4M49 + I5M49 + I6M49 + I7M49 + I8M49
   + I9M49 = 1
 R50: I0M50 + I1M50 + I2M50 + I3M50 + I4M50 + I5M50 + I6M50 + I7M50 + I8M50
   + I9M50 = 1
 R51: I0M51 + I1M51 + I2M51 + I3M51 + I4M51 + I5M51 + I6M51 + I7M51 + I8M51
   + I9M51 = 1
 R52: I0M52 + I1M52 + I2M52 + I3M52 + I4M52 + I5M52 + I6M52 + I7M52 + I8M52
   + I9M52 = 1
 R53: I0M53 + I1M53 + I2M53 + I3M53 + I4M53 + I5M53 + I6M53 + I7M53 + I8M53
   + I9M53 = 1
 R54: I0M54 + I1M54 + I2M54 + I3M54 + I4M54 + I5M54 + I6M54 + I7M54 + I8M54
   + I9M54 = 1
 R55: I0M55 + I1M55 + I2M55 + I3M55 + I4M55 + I5M55 + I6M55 + I7M55 + I8M55
   + I9M55 = 1
 R56: I0M56 + I1M56 + I2M56 + I3M56 + I4M56 + I5M56 + I6M56 + I7M56 + I8M56
   + I9M56 = 1
 R57: I0M57 + I1M57 + I2M57 + I3M57 + I4M57 + I5M57 + I6M57 + I7M57 + I8M57
   + I9M57 = 1
 R58: I0M58 + I1M58 + I2M58 + I3M58 + I4M58 + I5M58 + I6M58 + I7M58 + I8M58
   + I9M58 = 1
 R59: I0M59 + I1M59 + I2M59 + I3M59 + I4M59 + I5M59 + I6M59 + I7M59 + I8M59
   + I9M59 = 1
 R60: I0M60 + I1M60 + I2M60 + I3M60 + I4M60 + I5M60 + I6M60 + I7M60 + I8M60
   + I9M60 = 1
 R61: I0M61 + I1M61 + I2M61 + I3M61 + I4M61 + I5M61 + I6M61 + I7M61 + I8M61
   + I9M61 = 1
 R62: I0M62 + I1M62 + I2M62 + I3M62 + I4M62 + I5M62 + I6M62 + I7M62 + I8M62
   + I9M62 = 1
 R63: I0M63 + I1M63 + I2M63 + I3M63 + I4M63 + I5M63 + I6M63 + I7M63 + I8M63
   + I9M63 = 1
 R64: I0M64 + I1M64 + I2M64 + I3M64 + I4M64 + I5M64 + I6M64 + I7M64 + I8M64
   + I9M64 = 1
 R65: I0M65 + I1M65 + I2M65 + I3M65 + I4M65 + I5M65 + I6M65 + I7M65 + I8M65
   + I9M65 = 1
 R66: I0M66 + I1M66 + I2M66 + I3M66 + I4M66 + I5M66 + I6M66 + I7M66 + I8M66
   + I9M66 = 1
 R67: I0M67 + I1M67 + I2M67 + I3M67 + I4M67 + I5M67 + I6M67 + I7M67 + I8M67
   + I9M67 = 1
 R68: I0M68 + I1M68 + I2M68 + I3M68 + I4M68 + I5M68 + I6M68 + I7M68 + I8M68
   + I9M68 = 1
 R69: I0M69 + I1M69 + I2M69 + I3M69 + I4M69 + I5M69 + I6M69 + I7M69 + I8M69
   + I9M69 = 1
 R70: I0M70 + I1M70 + I2M70 + I3M70 + I4M70 + I5M70 + I6M70 + I7M70 + I8M70
   + I9M70 = 1
 R71: I0M71 + I1M71 + I2M71 + I3M71 + I4M71 + I5M71 + I6M71 + I7M71 + I8M71
   + I9M71 = 1
 R72: I0M72 + I1M72 + I2M72 + I3M72 + I4M72 + I5M72 + I6M72 + I7M72 + I8M72
   + I9M72 = 1
 R73: I0M73 + I1M73 + I2M73 + I3M73 + I4M73 + I5M73 + I6M73 + I7M73 + I8M73
   + I9M73 = 1
 R74: I0M74 + I1M74 + I2M74 + I3M74 + I4M74 + I5M74 + I6M74 + I7M74 + I8M74
   + I9M74 = 1
 R75: I0M75 + I1M75 + I2M75 + I3M75 + I4M75 + I5M75 + I6M75 + I7M75 + I8M75
   + I9M75 = 1
 R76: I0M76 + I1M76 + I2M76 + I3M76 + I4M76 + I5M76 + I6M76 + I7M76 + I8M76
   + I9M76 = 1
 R77: I0M77 + I1M77 + I2M77 + I3M77 + I4M77 + I5M77 + I6M77 + I7M77 + I8M77
   + I9M77 = 1
 R78: I0M78 + I1M78 + I2M78 + I3M78 + I4M78 + I5M78 + I6M78 + I7M78 + I8M78
   + I9M78 = 1
 R79: I0M79 + I1M79 + I2M79 + I3M79 + I4M79 + I5M79 + I6M79 + I7M79 + I8M79
   + I9M79 = 1
 R80: I0M80 + I1M80 + I2M80 + I3M80 + I4M80 + I5M80 + I6M80 + I7M80 + I8M80
   + I9M80 = 1
 R81: I0M81 + I1M81 + I2M81 + I3M81 + I4M81 + I5M81 + I6M81 + I7M81 + I8M81
   + I9M81 = 1
 R82: I0M82 + I1M82 + I2M82 + I3M82 + I4M82 + I5M82 + I6M82 + I7M82 + I8M82
   + I9M82 = 1
 R83: I0M83 + I1M83 + I2M83 + I3M83 + I4M83 + I5M83 + I6M83 + I7M83 + I8M83
   + I9M83 = 1
 R84: I0M84 + I1M84 + I2M84 + I3M84 + I4M84 + I5M84 + I6M84 + I7M84 + I8M84
   + I9M84 = 1
 R85: I0M85 + I1M85 + I2M85 + I3M85 + I4M85 + I5M85 + I6M85 + I7M85 + I8M85
   + I9M85 = 1
 R86: I0M86 + I1M86 + I2M86 + I3M86 + I4M86 + I5M86 + I6M86 + I7M86 + I8M86
   + I9M86 = 1
 R87: I0M87 + I1M87 + I2M87 + I3M87 + I4M87 + I5M87 + I6M87 + I7M87 + I8M87
   + I9M87 = 1
 R88: I0M88 + I1M88 + I2M88 + I3M88 + I4M88 + I5M88 + I6M88 + I7M88 + I8M88
   + I9M88 = 1
 R89: I0M89 + I1M89 + I2M89 + I3M89 + I4M89 + I5M89 + I6M89 + I7M89 + I8M89
   + I9M89 = 1
 R90: I0M90 + I1M90 + I2M90 + I3M90 + I4M90 + I5M90 + I6M90 + I7M90 + I8M90
   + I9M90 = 1
 R91: I0M91 + I1M91 + I2M91 + I3M91 + I4M91 + I5M91 + I6M91 + I7M91 + I8M91
   + I9M91 = 1
 R92: I0M92 + I1M92 + I2M92 + I3M92 + I4M92 + I5M92 + I6M92 + I7M92 + I8M92
   + I9M92 = 1
 R93: I0M93 + I1M93 + I2M93 + I3M93 + I4M93 + I5M93 + I6M93 + I7M93 + I8M93
   + I9M93 = 1
 R94: I0M94 + I1M94 + I2M94 + I3M94 + I4M94 + I5M94 + I6M94 + I7M94 + I8M94
   + I9M94 = 1
 R95: min - 2 I0M0 - 2 I0M1 - 2.25 I0M2 - 2 I0M3 - 2.75 I0M4 - 1.5 I0M5
   - 3.25 I0M6 - 2.25 I0M7 - 3.5 I0M8 - 3 I0M9 - 3.5 I0M10 - 3.5 I0M11
   - 1.5 I0M12 - 2.5 I0M13 - 3 I0M14 - 2.25 I0M15 - 2.5 I0M16 - 2.75 I0M17
   - 3.5 I0M18 - 3.5 I0M19 - 1.75 I0M20 - 3 I0M21 - 3 I0M22 - 3.5 I0M23
   - 1.75 I0M24 - 3.5 I0M25 - 1.25 I0M26 - 3.25 I0M27 - 1.25 I0M28
   - 2.25 I0M29 - 2.25 I0M30 - 2.75 I0M31 - 3.5 I0M32 - 1.25 I0M33
   - 3.5 I0M34 - 2.5 I0M35 - 1.75 I0M36 - 3 I0M37 - 1.25 I0M38 - 2 I0M39
   - 3 I0M40 - 3.5 I0M41 - 2.25 I0M42 - 1.25 I0M43 - 2.75 I0M44 - 1.5 I0M45
   - 2.25 I0M46 - 2.25 I0M47 - 3.5 I0M48 - 2 I0M49 - 2.5 I0M50 - 1.5 I0M51
   - 2 I0M52 - 1.75 I0M53 - 1.75 I0M54 - 2.5 I0M55 - 1.5 I0M56 - 1.75 I0M57
   - 2.5 I0M58 - 2.25 I0M59 - 3.5 I0M60 - 3.5 I0M61 - 1.25 I0M62
   - 3.25 I0M63 - 1.75 I0M64 - 1.5 I0M65 - 2.25 I0M66 - 2.25 I0M67
   - 1.25 I0M68 - 2.75 I0M69 - 3 I0M70 - 3.5 I0M71 - 3 I0M72 - 1.5 I0M73
   - 3.5 I0M74 - 2.75 I0M75 - 2 I0M76 - 2.75 I0M77 - 1.25 I0M78
   - 1.75 I0M79 - 3.5 I0M80 - 3 I0M81 - 2.75 I0M82 - 1.75 I0M83
   - 1.25 I0M84 - 1.25 I0M85 - 3.5 I0M86 - 2 I0M87 - 2.5 I0M88 - 2.5 I0M89
   - 3 I0M90 - 2.25 I0M91 - 2.75 I0M92 - 3.5 I0M93 - 2.25 I0M94 >= -0
 R96: min - 8 I1M0 - 8 I1M1 - 9 I1M2 - 8 I1M3 - 11 I1M4 - 6 I1M5 - 13 I1M6
   - 9 I1M7 - 14 I1M8 - 12 I1M9 - 14 I1M10 - 14 I1M11 - 6 I1M12 - 10 I1M13
   - 12 I1M14 - 9 I1M15 - 10 I1M16 - 11 I1M17 - 14 I1M18 - 14 I1M19
   - 7 I1M20 - 12 I1M21 - 12 I1M22 - 14 I1M23 - 7 I1M24 - 14 I1M25
   - 5 I1M26 - 13 I1M27 - 5 I1M28 - 9 I1M29 - 9 I1M30 - 11 I1M31 - 14 I1M32
   - 5 I1M33 - 14 I1M34 - 10 I1M35 - 7 I1M36 - 12 I1M37 - 5 I1M38 - 8 I1M39
   - 12 I1M40 - 14 I1M41 - 9 I1M42 - 5 I1M43 - 11 I1M44 - 6 I1M45 - 9 I1M46
   - 9 I1M47 - 14 I1M48 - 8 I1M49 - 10 I1M50 - 6 I1M51 - 8 I1M52 - 7 I1M53
   - 7 I1M54 - 10 I1M55 - 6 I1M56 - 7 I1M57 - 10 I1M58 - 9 I1M59 - 14 I1M60
   - 14 I1M61 - 5 I1M62 - 13 I1M63 - 7 I1M64 - 6 I1M65 - 9 I1M66 - 9 I1M67
   - 5 I1M68 - 11 I1M69 - 12 I1M70 - 14 I1M71 - 12 I1M72 - 6 I1M73
   - 14 I1M74 - 11 I1M75 - 8 I1M76 - 11 I1M77 - 5 I1M78 - 7 I1M79
   - 14 I1M80 - 12 I1M81 - 11 I1M82 - 7 I1M83 - 5 I1M84 - 5 I1M85
   - 14 I1M86 - 8 I1M87 - 10 I1M88 - 10 I1M89 - 12 I1M90 - 9 I1M91
   - 11 I1M92 - 14 I1M93 - 9 I1M94 >= -0
 R97: min - 8 I2M0 - 8 I2M1 - 9 I2M2 - 8 I2M3 - 11 I2M4 - 6 I2M5 - 13 I2M6
   - 9 I2M7 - 14 I2M8 - 12 I2M9 - 14 I2M10 - 14 I2M11 - 6 I2M12 - 10 I2M13
   - 12 I2M14 - 9 I2M15 - 10 I2M16 - 11 I2M17 - 14 I2M18 - 14 I2M19
   - 7 I2M20 - 12 I2M21 - 12 I2M22 - 14 I2M23 - 7 I2M24 - 14 I2M25
   - 5 I2M26 - 13 I2M27 - 5 I2M28 - 9 I2M29 - 9 I2M30 - 11 I2M31 - 14 I2M32
   - 5 I2M33 - 14 I2M34 - 10 I2M35 - 7 I2M36 - 12 I2M37 - 5 I2M38 - 8 I2M39
   - 12 I2M40 - 14 I2M41 - 9 I2M42 - 5 I2M43 - 11 I2M44 - 6 I2M45 - 9 I2M46
   - 9 I2M47 - 14 I2M48 - 8 I2M49 - 10 I2M50 - 6 I2M51 - 8 I2M52 - 7 I2M53
   - 7 I2M54 - 10 I2M55 - 6 I2M56 - 7 I2M57 - 10 I2M58 - 9 I2M59 - 14 I2M60
   - 14 I2M61 - 5 I2M62 - 13 I2M63 - 7 I2M64 - 6 I2M65 - 9 I2M66 - 9 I2M67
   - 5 I2M68 - 11 I2M69 - 12 I2M70 - 14 I2M71 - 12 I2M72 - 6 I2M73
   - 14 I2M74 - 11 I2M75 - 8 I2M76 - 11 I2M77 - 5 I2M78 - 7 I2M79
   - 14 I2M80 - 12 I2M81 - 11 I2M82 - 7 I2M83 - 5 I2M84 - 5 I2M85
   - 14 I2M86 - 8 I2M87 - 10 I2M88 - 10 I2M89 - 12 I2M90 - 9 I2M91
   - 11 I2M92 - 14 I2M93 - 9 I2M94 >= -0
 R98: min - 2.666666666666667 I3M0 - 2.666666666666667 I3M1 - 3 I3M2
   - 2.666666666666667 I3M3 - 3.666666666666667 I3M4 - 2 I3M5
   - 4.333333333333333 I3M6 - 3 I3M7 - 4.666666666666666 I3M8 - 4 I3M9
   - 4.666666666666666 I3M10 - 4.666666666666666 I3M11 - 2 I3M12
   - 3.333333333333333 I3M13 - 4 I3M14 - 3 I3M15 - 3.333333333333333 I3M16
   - 3.666666666666667 I3M17 - 4.666666666666666 I3M18
   - 4.666666666666666 I3M19 - 2.333333333333333 I3M20 - 4 I3M21 - 4 I3M22
   - 4.666666666666666 I3M23 - 2.333333333333333 I3M24
   - 4.666666666666666 I3M25 - 1.666666666666667 I3M26
   - 4.333333333333333 I3M27 - 1.666666666666667 I3M28 - 3 I3M29 - 3 I3M30
   - 3.666666666666667 I3M31 - 4.666666666666666 I3M32
   - 1.666666666666667 I3M33 - 4.666666666666666 I3M34
   - 3.333333333333333 I3M35 - 2.333333333333333 I3M36 - 4 I3M37
   - 1.666666666666667 I3M38 - 2.666666666666667 I3M39 - 4 I3M40
   - 4.666666666666666 I3M41 - 3 I3M42 - 1.666666666666667 I3M43
   - 3.666666666666667 I3M44 - 2 I3M45 - 3 I3M46 - 3 I3M47
   - 4.666666666666666 I3M48 - 2.666666666666667 I3M49
   - 3.333333333333333 I3M50 - 2 I3M51 - 2.666666666666667 I3M52
   - 2.333333333333333 I3M53 - 2.333333333333333 I3M54
   - 3.333333333333333 I3M55 - 2 I3M56 - 2.333333333333333 I3M57
   - 3.333333333333333 I3M58 - 3 I3M59 - 4.666666666666666 I3M60
   - 4.666666666666666 I3M61 - 1.666666666666667 I3M62
   - 4.333333333333333 I3M63 - 2.333333333333333 I3M64 - 2 I3M65 - 3 I3M66
   - 3 I3M67 - 1.666666666666667 I3M68 - 3.666666666666667 I3M69 - 4 I3M70
   - 4.666666666666666 I3M71 - 4 I3M72 - 2 I3M73 - 4.666666666666666 I3M74
   - 3.666666666666667 I3M75 - 2.666666666666667 I3M76
   - 3.666666666666667 I3M77 - 1.666666666666667 I3M78
   - 2.333333333333333 I3M79 - 4.666666666666666 I3M80 - 4 I3M81
   - 3.666666666666667 I3M82 - 2.333333333333333 I3M83
   - 1.666666666666667 I3M84 - 1.666666666666667 I3M85
   - 4.666666666666666 I3M86 - 2.666666666666667 I3M87
   - 3.333333333333333 I3M88 - 3.333333333333333 I3M89 - 4 I3M90 - 3 I3M91
   - 3.666666666666667 I3M92 - 4.666666666666666 I3M93 - 3 I3M94 >= -0
 R99: min - 2 I4M0 - 2 I4M1 - 2.25 I4M2 - 2 I4M3 - 2.75 I4M4 - 1.5 I4M5
   - 3.25 I4M6 - 2.25 I4M7 - 3.5 I4M8 - 3 I4M9 - 3.5 I4M10 - 3.5 I4M11
   - 1.5 I4M12 - 2.5 I4M13 - 3 I4M14 - 2.25 I4M15 - 2.5 I4M16 - 2.75 I4M17
   - 3.5 I4M18 - 3.5 I4M19 - 1.75 I4M20 - 3 I4M21 - 3 I4M22 - 3.5 I4M23
   - 1.75 I4M24 - 3.5 I4M25 - 1.25 I4M26 - 3.25 I4M27 - 1.25 I4M28
   - 2.25 I4M29 - 2.25 I4M30 - 2.75 I4M31 - 3.5 I4M32 - 1.25 I4M33
   - 3.5 I4M34 - 2.5 I4M35 - 1.75 I4M36 - 3 I4M37 - 1.25 I4M38 - 2 I4M39
   - 3 I4M40 - 3.5 I4M41 - 2.25 I4M42 - 1.25 I4M43 - 2.75 I4M44 - 1.5 I4M45
   - 2.25 I4M46 - 2.25 I4M47 - 3.5 I4M48 - 2 I4M49 - 2.5 I4M50 - 1.5 I4M51
   - 2 I4M52 - 1.75 I4M53 - 1.75 I4M54 - 2.5 I4M55 - 1.5 I4M56 - 1.75 I4M57
   - 2.5 I4M58 - 2.25 I4M59 - 3.5 I4M60 - 3.5 I4M61 - 1.25 I4M62
   - 3.25 I4M63 - 1.75 I4M64 - 1.5 I4M65 - 2.25 I4M66 - 2.25 I4M67
   - 1.25 I4M68 - 2.75 I4M69 - 3 I4M70 - 3.5 I4M71 - 3 I4M72 - 1.5 I4M73
   - 3.5 I4M74 - 2.75 I4M75 - 2 I4M76 - 2.75 I4M77 - 1.25 I4M78
   - 1.75 I4M79 - 3.5 I4M80 - 3 I4M81 - 2.75 I4M82 - 1.75 I4M83
   - 1.25 I4M84 - 1.25 I4M85 - 3.5 I4M86 - 2 I4M87 - 2.5 I4M88 - 2.5 I4M89
   - 3 I4M90 - 2.25 I4M91 - 2.75 I4M92 - 3.5 I4M93 - 2.25 I4M94 >= -0
 R100: min - 4 I5M0 - 4 I5M1 - 4.5 I5M2 - 4 I5M3 - 5.5 I5M4 - 3 I5M5
   - 6.5 I5M6 - 4.5 I5M7 - 7 I5M8 - 6 I5M9 - 7 I5M10 - 7 I5M11 - 3 I5M12
   - 5 I5M13 - 6 I5M14 - 4.5 I5M15 - 5 I5M16 - 5.5 I5M17 - 7 I5M18
   - 7 I5M19 - 3.5 I5M20 - 6 I5M21 - 6 I5M22 - 7 I5M23 - 3.5 I5M24
   - 7 I5M25 - 2.5 I5M26 - 6.5 I5M27 - 2.5 I5M28 - 4.5 I5M29 - 4.5 I5M30
   - 5.5 I5M31 - 7 I5M32 - 2.5 I5M33 - 7 I5M34 - 5 I5M35 - 3.5 I5M36
   - 6 I5M37 - 2.5 I5M38 - 4 I5M39 - 6 I5M40 - 7 I5M41 - 4.5 I5M42
   - 2.5 I5M43 - 5.5 I5M44 - 3 I5M45 - 4.5 I5M46 - 4.5 I5M47 - 7 I5M48
   - 4 I5M49 - 5 I5M50 - 3 I5M51 - 4 I5M52 - 3.5 I5M53 - 3.5 I5M54
   - 5 I5M55 - 3 I5M56 - 3.5 I5M57 - 5 I5M58 - 4.5 I5M59 - 7 I5M60
   - 7 I5M61 - 2.5 I5M62 - 6.5 I5M63 - 3.5 I5M64 - 3 I5M65 - 4.5 I5M66
   - 4.5 I5M67 - 2.5 I5M68 - 5.5 I5M69 - 6 I5M70 - 7 I5M71 - 6 I5M72
   - 3 I5M73 - 7 I5M74 - 5.5 I5M75 - 4 I5M76 - 5.5 I5M77 - 2.5 I5M78
   - 3.5 I5M79 - 7 I5M80 - 6 I5M81 - 5.5 I5M82 - 3.5 I5M83 - 2.5 I5M84
   - 2.5 I5M85 - 7 I5M86 - 4 I5M87 - 5 I5M88 - 5 I5M89 - 6 I5M90
   - 4.5 I5M91 - 5.5 I5M92 - 7 I5M93 - 4.5 I5M94 >= -0
 R101: min - 4 I6M0 - 4 I6M1 - 4.5 I6M2 - 4 I6M3 - 5.5 I6M4 - 3 I6M5
   - 6.5 I6M6 - 4.5 I6M7 - 7 I6M8 - 6 I6M9 - 7 I6M10 - 7 I6M11 - 3 I6M12
   - 5 I6M13 - 6 I6M14 - 4.5 I6M15 - 5 I6M16 - 5.5 I6M17 - 7 I6M18
   - 7 I6M19 - 3.5 I6M20 - 6 I6M21 - 6 I6M22 - 7 I6M23 - 3.5 I6M24
   - 7 I6M25 - 2.5 I6M26 - 6.5 I6M27 - 2.5 I6M28 - 4.5 I6M29 - 4.5 I6M30
   - 5.5 I6M31 - 7 I6M32 - 2.5 I6M33 - 7 I6M34 - 5 I6M35 - 3.5 I6M36
   - 6 I6M37 - 2.5 I6M38 - 4 I6M39 - 6 I6M40 - 7 I6M41 - 4.5 I6M42
   - 2.5 I6M43 - 5.5 I6M44 - 3 I6M45 - 4.5 I6M46 - 4.5 I6M47 - 7 I6M48
   - 4 I6M49 - 5 I6M50 - 3 I6M51 - 4 I6M52 - 3.5 I6M53 - 3.5 I6M54
   - 5 I6M55 - 3 I6M56 - 3.5 I6M57 - 5 I6M58 - 4.5 I6M59 - 7 I6M60
   - 7 I6M61 - 2.5 I6M62 - 6.5 I6M63 - 3.5 I6M64 - 3 I6M65 - 4.5 I6M66
   - 4.5 I6M67 - 2.5 I6M68 - 5.5 I6M69 - 6 I6M70 - 7 I6M71 - 6 I6M72
   - 3 I6M73 - 7 I6M74 - 5.5 I6M75 - 4 I6M76 - 5.5 I6M77 - 2.5 I6M78
   - 3.5 I6M79 - 7 I6M80 - 6 I6M81 - 5.5 I6M82 - 3.5 I6M83 - 2.5 I6M84
   - 2.5 I6M85 - 7 I6M86 - 4 I6M87 - 5 I6M88 - 5 I6M89 - 6 I6M90
   - 4.5 I6M91 - 5.5 I6M92 - 7 I6M93 - 4.5 I6M94 >= -0
 R102: min - 2.666666666666667 I7M0 - 2.666666666666667 I7M1 - 3 I7M2
   - 2.666666666666667 I7M3 - 3.666666666666667 I7M4 - 2 I7M5
   - 4.333333333333333 I7M6 - 3 I7M7 - 4.666666666666666 I7M8 - 4 I7M9
   - 4.666666666666666 I7M10 - 4.666666666666666 I7M11 - 2 I7M12
   - 3.333333333333333 I7M13 - 4 I7M14 - 3 I7M15 - 3.333333333333333 I7M16
   - 3.666666666666667 I7M17 - 4.666666666666666 I7M18
   - 4.666666666666666 I7M19 - 2.333333333333333 I7M20 - 4 I7M21 - 4 I7M22
   - 4.666666666666666 I7M23 - 2.333333333333333 I7M24
   - 4.666666666666666 I7M25 - 1.666666666666667 I7M26
   - 4.333333333333333 I7M27 - 1.666666666666667 I7M28 - 3 I7M29 - 3 I7M30
   - 3.666666666666667 I7M31 - 4.666666666666666 I7M32
   - 1.666666666666667 I7M33 - 4.666666666666666 I7M34
   - 3.333333333333333 I7M35 - 2.333333333333333 I7M36 - 4 I7M37
   - 1.666666666666667 I7M38 - 2.666666666666667 I7M39 - 4 I7M40
   - 4.666666666666666 I7M41 - 3 I7M42 - 1.666666666666667 I7M43
   - 3.666666666666667 I7M44 - 2 I7M45 - 3 I7M46 - 3 I7M47
   - 4.666666666666666 I7M48 - 2.666666666666667 I7M49
   - 3.333333333333333 I7M50 - 2 I7M51 - 2.666666666666667 I7M52
   - 2.333333333333333 I7M53 - 2.333333333333333 I7M54
   - 3.333333333333333 I7M55 - 2 I7M56 - 2.333333333333333 I7M57
   - 3.333333333333333 I7M58 - 3 I7M59 - 4.666666666666666 I7M60
   - 4.666666666666666 I7M61 - 1.666666666666667 I7M62
   - 4.333333333333333 I7M63 - 2.333333333333333 I7M64 - 2 I7M65 - 3 I7M66
   - 3 I7M67 - 1.666666666666667 I7M68 - 3.666666666666667 I7M69 - 4 I7M70
   - 4.666666666666666 I7M71 - 4 I7M72 - 2 I7M73 - 4.666666666666666 I7M74
   - 3.666666666666667 I7M75 - 2.666666666666667 I7M76
   - 3.666666666666667 I7M77 - 1.666666666666667 I7M78
   - 2.333333333333333 I7M79 - 4.666666666666666 I7M80 - 4 I7M81
   - 3.666666666666667 I7M82 - 2.333333333333333 I7M83
   - 1.666666666666667 I7M84 - 1.666666666666667 I7M85
   - 4.666666666666666 I7M86 - 2.666666666666667 I7M87
   - 3.333333333333333 I7M88 - 3.333333333333333 I7M89 - 4 I7M90 - 3 I7M91
   - 3.666666666666667 I7M92 - 4.666666666666666 I7M93 - 3 I7M94 >= -0
 R103: min - 4 I8M0 - 4 I8M1 - 4.5 I8M2 - 4 I8M3 - 5.5 I8M4 - 3 I8M5
   - 6.5 I8M6 - 4.5 I8M7 - 7 I8M8 - 6 I8M9 - 7 I8M10 - 7 I8M11 - 3 I8M12
   - 5 I8M13 - 6 I8M14 - 4.5 I8M15 - 5 I8M16 - 5.5 I8M17 - 7 I8M18
   - 7 I8M19 - 3.5 I8M20 - 6 I8M21 - 6 I8M22 - 7 I8M23 - 3.5 I8M24
   - 7 I8M25 - 2.5 I8M26 - 6.5 I8M27 - 2.5 I8M28 - 4.5 I8M29 - 4.5 I8M30
   - 5.5 I8M31 - 7 I8M32 - 2.5 I8M33 - 7 I8M34 - 5 I8M35 - 3.5 I8M36
   - 6 I8M37 - 2.5 I8M38 - 4 I8M39 - 6 I8M40 - 7 I8M41 - 4.5 I8M42
   - 2.5 I8M43 - 5.5 I8M44 - 3 I8M45 - 4.5 I8M46 - 4.5 I8M47 - 7 I8M48
   - 4 I8M49 - 5 I8M50 - 3 I8M51 - 4 I8M52 - 3.5 I8M53 - 3.5 I8M54
   - 5 I8M55 - 3 I8M56 - 3.5 I8M57 - 5 I8M58 - 4.5 I8M59 - 7 I8M60
   - 7 I8M61 - 2.5 I8M62 - 6.5 I8M63 - 3.5 I8M64 - 3 I8M65 - 4.5 I8M66
   - 4.5 I8M67 - 2.5 I8M68 - 5.5 I8M69 - 6 I8M70 - 7 I8M71 - 6 I8M72
   - 3 I8M73 - 7 I8M74 - 5.5 I8M75 - 4 I8M76 - 5.5 I8M77 - 2.5 I8M78
   - 3.5 I8M79 - 7 I8M80 - 6 I8M81 - 5.5 I8M82 - 3.5 I8M83 - 2.5 I8M84
   - 2.5 I8M85 - 7 I8M86 - 4 I8M87 - 5 I8M88 - 5 I8M89 - 6 I8M90
   - 4.5 I8M91 - 5.5 I8M92 - 7 I8M93 - 4.5 I8M94 >= -0
 R104: min - 8 I9M0 - 8 I9M1 - 9 I9M2 - 8 I9M3 - 11 I9M4 - 6 I9M5 - 13 I9M6
   - 9 I9M7 - 14 I9M8 - 12 I9M9 - 14 I9M10 - 14 I9M11 - 6 I9M12 - 10 I9M13
   - 12 I9M14 - 9 I9M15 - 10 I9M16 - 11 I9M17 - 14 I9M18 - 14 I9M19
   - 7 I9M20 - 12 I9M21 - 12 I9M22 - 14 I9M23 - 7 I9M24 - 14 I9M25
   - 5 I9M26 - 13 I9M27 - 5 I9M28 - 9 I9M29 - 9 I9M30 - 11 I9M31 - 14 I9M32
   - 5 I9M33 - 14 I9M34 - 10 I9M35 - 7 I9M36 - 12 I9M37 - 5 I9M38 - 8 I9M39
   - 12 I9M40 - 14 I9M41 - 9 I9M42 - 5 I9M43 - 11 I9M44 - 6 I9M45 - 9 I9M46
   - 9 I9M47 - 14 I9M48 - 8 I9M49 - 10 I9M50 - 6 I9M51 - 8 I9M52 - 7 I9M53
   - 7 I9M54 - 10 I9M55 - 6 I9M56 - 7 I9M57 - 10 I9M58 - 9 I9M59 - 14 I9M60
   - 14 I9M61 - 5 I9M62 - 13 I9M63 - 7 I9M64 - 6 I9M65 - 9 I9M66 - 9 I9M67
   - 5 I9M68 - 11 I9M69 - 12 I9M70 - 14 I9M71 - 12 I9M72 - 6 I9M73
   - 14 I9M74 - 11 I9M75 - 8 I9M76 - 11 I9M77 - 5 I9M78 - 7 I9M79
   - 14 I9M80 - 12 I9M81 - 11 I9M82 - 7 I9M83 - 5 I9M84 - 5 I9M85
   - 14 I9M86 - 8 I9M87 - 10 I9M88 - 10 I9M89 - 12 I9M90 - 9 I9M91
   - 11 I9M92 - 14 I9M93 - 9 I9M94 >= -0
Bounds
 min <= 30000
Binaries
 I0M0 I0M1 I0M2 I0M3 I0M4 I0M5 I0M6 I0M7 I0M8 I0M9 I0M10 I0M11 I0M12 I0M13
 I0M14 I0M15 I0M16 I0M17 I0M18 I0M19 I0M20 I0M21 I0M22 I0M23 I0M24 I0M25
 I0M26 I0M27 I0M28 I0M29 I0M30 I0M31 I0M32 I0M33 I0M34 I0M35 I0M36 I0M37
 I0M38 I0M39 I0M40 I0M41 I0M42 I0M43 I0M44 I0M45 I0M46 I0M47 I0M48 I0M49
 I0M50 I0M51 I0M52 I0M53 I0M54 I0M55 I0M56 I0M57 I0M58 I0M59 I0M60 I0M61
 I0M62 I0M63 I0M64 I0M65 I0M66 I0M67 I0M68 I0M69 I0M70 I0M71 I0M72 I0M73
 I0M74 I0M75 I0M76 I0M77 I0M78 I0M79 I0M80 I0M81 I0M82 I0M83 I0M84 I0M85
 I0M86 I0M87 I0M88 I0M89 I0M90 I0M91 I0M92 I0M93 I0M94 I1M0 I1M1 I1M2 I1M3
 I1M4 I1M5 I1M6 I1M7 I1M8 I1M9 I1M10 I1M11 I1M12 I1M13 I1M14 I1M15 I1M16
 I1M17 I1M18 I1M19 I1M20 I1M21 I1M22 I1M23 I1M24 I1M25 I1M26 I1M27 I1M28
 I1M29 I1M30 I1M31 I1M32 I1M33 I1M34 I1M35 I1M36 I1M37 I1M38 I1M39 I1M40
 I1M41 I1M42 I1M43 I1M44 I1M45 I1M46 I1M47 I1M48 I1M49 I1M50 I1M51 I1M52
 I1M53 I1M54 I1M55 I1M56 I1M57 I1M58 I1M59 I1M60 I1M61 I1M62 I1M63 I1M64
 I1M65 I1M66 I1M67 I1M68 I1M69 I1M70 I1M71 I1M72 I1M73 I1M74 I1M75 I1M76
 I1M77 I1M78 I1M79 I1M80 I1M81 I1M82 I1M83 I1M84 I1M85 I1M86 I1M87 I1M88
 I1M89 I1M90 I1M91 I1M92 I1M93 I1M94 I2M0 I2M1 I2M2 I2M3 I2M4 I2M5 I2M6
 I2M7 I2M8 I2M9 I2M10 I2M11 I2M12 I2M13 I2M14 I2M15 I2M16 I2M17 I2M18 I2M19
 I2M20 I2M21 I2M22 I2M23 I2M24 I2M25 I2M26 I2M27 I2M28 I2M29 I2M30 I2M31
 I2M32 I2M33 I2M34 I2M35 I2M36 I2M37 I2M38 I2M39 I2M40 I2M41 I2M42 I2M43
 I2M44 I2M45 I2M46 I2M47 I2M48 I2M49 I2M50 I2M51 I2M52 I2M53 I2M54 I2M55
 I2M56 I2M57 I2M58 I2M59 I2M60 I2M61 I2M62 I2M63 I2M64 I2M65 I2M66 I2M67
 I2M68 I2M69 I2M70 I2M71 I2M72 I2M73 I2M74 I2M75 I2M76 I2M77 I2M78 I2M79
 I2M80 I2M81 I2M82 I2M83 I2M84 I2M85 I2M86 I2M87 I2M88 I2M89 I2M90 I2M91
 I2M92 I2M93 I2M94 I3M0 I3M1 I3M2 I3M3 I3M4 I3M5 I3M6 I3M7 I3M8 I3M9 I3M10
 I3M11 I3M12 I3M13 I3M14 I3M15 I3M16 I3M17 I3M18 I3M19 I3M20 I3M21 I3M22
 I3M23 I3M24 I3M25 I3M26 I3M27 I3M28 I3M29 I3M30 I3M31 I3M32 I3M33 I3M34
 I3M35 I3M36 I3M37 I3M38 I3M39 I3M40 I3M41 I3M42 I3M43 I3M44 I3M45 I3M46
 I3M47 I3M48 I3M49 I3M50 I3M51 I3M52 I3M53 I3M54 I3M55 I3M56 I3M57 I3M58
 I3M59 I3M60 I3M61 I3M62 I3M63 I3M64 I3M65 I3M66 I3M67 I3M68 I3M69 I3M70
 I3M71 I3M72 I3M73 I3M74 I3M75 I3M76 I3M77 I3M78 I3M79 I3M80 I3M81 I3M82
 I3M83 I3M84 I3M85 I3M86 I3M87 I3M88 I3M89 I3M90 I3M91 I3M92 I3M93 I3M94
 I4M0 I4M1 I4M2 I4M3 I4M4 I4M5 I4M6 I4M7 I4M8 I4M9 I4M10 I4M11 I4M12 I4M13
 I4M14 I4M15 I4M16 I4M17 I4M18 I4M19 I4M20 I4M21 I4M22 I4M23 I4M24 I4M25
 I4M26 I4M27 I4M28 I4M29 I4M30 I4M31 I4M32 I4M33 I4M34 I4M35 I4M36 I4M37
 I4M38 I4M39 I4M40 I4M41 I4M42 I4M43 I4M44 I4M45 I4M46 I4M47 I4M48 I4M49
 I4M50 I4M51 I4M52 I4M53 I4M54 I4M55 I4M56 I4M57 I4M58 I4M59 I4M60 I4M61
 I4M62 I4M63 I4M64 I4M65 I4M66 I4M67 I4M68 I4M69 I4M70 I4M71 I4M72 I4M73
 I4M74 I4M75 I4M76 I4M77 I4M78 I4M79 I4M80 I4M81 I4M82 I4M83 I4M84 I4M85
 I4M86 I4M87 I4M88 I4M89 I4M90 I4M91 I4M92 I4M93 I4M94 I5M0 I5M1 I5M2 I5M3
 I5M4 I5M5 I5M6 I5M7 I5M8 I5M9 I5M10 I5M11 I5M12 I5M13 I5M14 I5M15 I5M16
 I5M17 I5M18 I5M19 I5M20 I5M21 I5M22 I5M23 I5M24 I5M25 I5M26 I5M27 I5M28
 I5M29 I5M30 I5M31 I5M32 I5M33 I5M34 I5M35 I5M36 I5M37 I5M38 I5M39 I5M40
 I5M41 I5M42 I5M43 I5M44 I5M45 I5M46 I5M47 I5M48 I5M49 I5M50 I5M51 I5M52
 I5M53 I5M54 I5M55 I5M56 I5M57 I5M58 I5M59 I5M60 I5M61 I5M62 I5M63 I5M64
 I5M65 I5M66 I5M67 I5M68 I5M69 I5M70 I5M71 I5M72 I5M73 I5M74 I5M75 I5M76
 I5M77 I5M78 I5M79 I5M80 I5M81 I5M82 I5M83 I5M84 I5M85 I5M86 I5M87 I5M88
 I5M89 I5M90 I5M91 I5M92 I5M93 I5M94 I6M0 I6M1 I6M2 I6M3 I6M4 I6M5 I6M6
 I6M7 I6M8 I6M9 I6M10 I6M11 I6M12 I6M13 I6M14 I6M15 I6M16 I6M17 I6M18 I6M19
 I6M20 I6M21 I6M22 I6M23 I6M24 I6M25 I6M26 I6M27 I6M28 I6M29 I6M30 I6M31
 I6M32 I6M33 I6M34 I6M35 I6M36 I6M37 I6M38 I6M39 I6M40 I6M41 I6M42 I6M43
 I6M44 I6M45 I6M46 I6M47 I6M48 I6M49 I6M50 I6M51 I6M52 I6M53 I6M54 I6M55
 I6M56 I6M57 I6M58 I6M59 I6M60 I6M61 I6M62 I6M63 I6M64 I6M65 I6M66 I6M67
 I6M68 I6M69 I6M70 I6M71 I6M72 I6M73 I6M74 I6M75 I6M76 I6M77 I6M78 I6M79
 I6M80 I6M81 I6M82 I6M83 I6M84 I6M85 I6M86 I6M87 I6M88 I6M89 I6M90 I6M91
 I6M92 I6M93 I6M94 I7M0 I7M1 I7M2 I7M3 I7M4 I7M5 I7M6 I7M7 I7M8 I7M9 I7M10
 I7M11 I7M12 I7M13 I7M14 I7M15 I7M16 I7M17 I7M18 I7M19 I7M20 I7M21 I7M22
 I7M23 I7M24 I7M25 I7M26 I7M27 I7M28 I7M29 I7M30 I7M31 I7M32 I7M33 I7M34
 I7M35 I7M36 I7M37 I7M38 I7M39 I7M40 I7M41 I7M42 I7M43 I7M44 I7M45 I7M46
 I7M47 I7M48 I7M49 I7M50 I7M51 I7M52 I7M53 I7M54 I7M55 I7M56 I7M57 I7M58
 I7M59 I7M60 I7M61 I7M62 I7M63 I7M64 I7M65 I7M66 I7M67 I7M68 I7M69 I7M70
 I7M71 I7M72 I7M73 I7M74 I7M75 I7M76 I7M77 I7M78 I7M79 I7M80 I7M81 I7M82
 I7M83 I7M84 I7M85 I7M86 I7M87 I7M88 I7M89 I7M90 I7M91 I7M92 I7M93 I7M94
 I8M0 I8M1 I8M2 I8M3 I8M4 I8M5 I8M6 I8M7 I8M8 I8M9 I8M10 I8M11 I8M12 I8M13
 I8M14 I8M15 I8M16 I8M17 I8M18 I8M19 I8M20 I8M21 I8M22 I8M23 I8M24 I8M25
 I8M26 I8M27 I8M28 I8M29 I8M30 I8M31 I8M32 I8M33 I8M34 I8M35 I8M36 I8M37
 I8M38 I8M39 I8M40 I8M41 I8M42 I8M43 I8M44 I8M45 I8M46 I8M47 I8M48 I8M49
 I8M50 I8M51 I8M52 I8M53 I8M54 I8M55 I8M56 I8M57 I8M58 I8M59 I8M60 I8M61
 I8M62 I8M63 I8M64 I8M65 I8M66 I8M67 I8M68 I8M69 I8M70 I8M71 I8M72 I8M73
 I8M74 I8M75 I8M76 I8M77 I8M78 I8M79 I8M80 I8M81 I8M82 I8M83 I8M84 I8M85
 I8M86 I8M87 I8M88 I8M89 I8M90 I8M91 I8M92 I8M93 I8M94 I9M0 I9M1 I9M2 I9M3
 I9M4 I9M5 I9M6 I9M7 I9M8 I9M9 I9M10 I9M11 I9M12 I9M13 I9M14 I9M15 I9M16
 I9M17 I9M18 I9M19 I9M20 I9M21 I9M22 I9M23 I9M24 I9M25 I9M26 I9M27 I9M28
 I9M29 I9M30 I9M31 I9M32 I9M33 I9M34 I9M35 I9M36 I9M37 I9M38 I9M39 I9M40
 I9M41 I9M42 I9M43 I9M44 I9M45 I9M46 I9M47 I9M48 I9M49 I9M50 I9M51 I9M52
 I9M53 I9M54 I9M55 I9M56 I9M57 I9M58 I9M59 I9M60 I9M61 I9M62 I9M63 I9M64
 I9M65 I9M66 I9M67 I9M68 I9M69 I9M70 I9M71 I9M72 I9M73 I9M74 I9M75 I9M76
 I9M77 I9M78 I9M79 I9M80 I9M81 I9M82 I9M83 I9M84 I9M85 I9M86 I9M87 I9M88
 I9M89 I9M90 I9M91 I9M92 I9M93 I9M94
End
